c
c start with comments
c
p cnf 65 43
-35 -48 0
53 -47 29 0
37 -62 51 64 48 0
27 -31 0
7 9 42 0
10 -32 68 20 0
-59 -69 0
36 20 -46 0
-27 -37 0
-7 59 -45 0
-26 -49 0
66 -3 63 -45 -71 68 0
-71 -34 42 44 0
-22 -18 26 62 0
14 65 -60 0
-65 -58 37 0
19 26 -5 -47 0
-40 48 -6 -70 0
45 40 0
-58 65 16 49 0
-10 -51 -29 0
9 32 -30 -51 0
-40 61 48 31 39 0
58 -41 -52 0
68 48 49 0
3 21 -56 -13 20 -41 0
-41 -5 70 0
-62 4 68 -46 -16 0
25 60 0
55 -42 0
-21 36 31 -8 31 0
65 15 -66 0
2 -12 0
67 35 -51 -63 -43 0
13 -14 0
-30 15 -23 0
12 -64 0
-20 -9 0
-2 -17 0
48 -24 9 -44 53 0
34 28 0
11 47 0
14 -25 -34 -25 0